num_iter = 10000
conv_tol = 1e-10
conv_window = 5
write_hr = .true.
guiding_centres = .true.
gamma_only = .false.
bands_plot = .true.
write_u_matrices = .true.
write_xyz = .true.

begin projections
  random
end projections
num_wann = 8
num_bands = 8
mp_grid = 6 6 6


begin kpoint_path
   L  0.50000   0.50000   0.50000 G  0.00000   0.00000   0.00000
   G  0.00000   0.00000   0.00000 X  0.50000   0.00000   0.50000
   X  0.50000   0.00000   0.50000 K  0.37500   0.37500   0.75000
   K  0.37500   0.37500   0.75000 G  0.00000   0.00000   0.00000
end kpoint_path
dis_num_iter = 5000

begin atoms_frac
  Si 0.0 0.0 0.0
  Si 0.25 0.25 0.25
end atoms_frac

begin unit_cell_cart
  ang
  -2.7152611851241253 0.0 2.7152611851241253
  0.0 2.7152611851241253 2.7152611851241253
  -2.7152611851241253 2.7152611851241253 0.0
end unit_cell_cart

begin kpoints
  0.00000000  0.00000000  0.00000000
  0.00000000  0.00000000  0.16666667
  0.00000000  0.00000000  0.33333333
  0.00000000  0.00000000  0.50000000
  0.00000000  0.00000000  0.66666667
  0.00000000  0.00000000  0.83333333
  0.00000000  0.16666667  0.00000000
  0.00000000  0.16666667  0.16666667
  0.00000000  0.16666667  0.33333333
  0.00000000  0.16666667  0.50000000
  0.00000000  0.16666667  0.66666667
  0.00000000  0.16666667  0.83333333
  0.00000000  0.33333333  0.00000000
  0.00000000  0.33333333  0.16666667
  0.00000000  0.33333333  0.33333333
  0.00000000  0.33333333  0.50000000
  0.00000000  0.33333333  0.66666667
  0.00000000  0.33333333  0.83333333
  0.00000000  0.50000000  0.00000000
  0.00000000  0.50000000  0.16666667
  0.00000000  0.50000000  0.33333333
  0.00000000  0.50000000  0.50000000
  0.00000000  0.50000000  0.66666667
  0.00000000  0.50000000  0.83333333
  0.00000000  0.66666667  0.00000000
  0.00000000  0.66666667  0.16666667
  0.00000000  0.66666667  0.33333333
  0.00000000  0.66666667  0.50000000
  0.00000000  0.66666667  0.66666667
  0.00000000  0.66666667  0.83333333
  0.00000000  0.83333333  0.00000000
  0.00000000  0.83333333  0.16666667
  0.00000000  0.83333333  0.33333333
  0.00000000  0.83333333  0.50000000
  0.00000000  0.83333333  0.66666667
  0.00000000  0.83333333  0.83333333
  0.16666667  0.00000000  0.00000000
  0.16666667  0.00000000  0.16666667
  0.16666667  0.00000000  0.33333333
  0.16666667  0.00000000  0.50000000
  0.16666667  0.00000000  0.66666667
  0.16666667  0.00000000  0.83333333
  0.16666667  0.16666667  0.00000000
  0.16666667  0.16666667  0.16666667
  0.16666667  0.16666667  0.33333333
  0.16666667  0.16666667  0.50000000
  0.16666667  0.16666667  0.66666667
  0.16666667  0.16666667  0.83333333
  0.16666667  0.33333333  0.00000000
  0.16666667  0.33333333  0.16666667
  0.16666667  0.33333333  0.33333333
  0.16666667  0.33333333  0.50000000
  0.16666667  0.33333333  0.66666667
  0.16666667  0.33333333  0.83333333
  0.16666667  0.50000000  0.00000000
  0.16666667  0.50000000  0.16666667
  0.16666667  0.50000000  0.33333333
  0.16666667  0.50000000  0.50000000
  0.16666667  0.50000000  0.66666667
  0.16666667  0.50000000  0.83333333
  0.16666667  0.66666667  0.00000000
  0.16666667  0.66666667  0.16666667
  0.16666667  0.66666667  0.33333333
  0.16666667  0.66666667  0.50000000
  0.16666667  0.66666667  0.66666667
  0.16666667  0.66666667  0.83333333
  0.16666667  0.83333333  0.00000000
  0.16666667  0.83333333  0.16666667
  0.16666667  0.83333333  0.33333333
  0.16666667  0.83333333  0.50000000
  0.16666667  0.83333333  0.66666667
  0.16666667  0.83333333  0.83333333
  0.33333333  0.00000000  0.00000000
  0.33333333  0.00000000  0.16666667
  0.33333333  0.00000000  0.33333333
  0.33333333  0.00000000  0.50000000
  0.33333333  0.00000000  0.66666667
  0.33333333  0.00000000  0.83333333
  0.33333333  0.16666667  0.00000000
  0.33333333  0.16666667  0.16666667
  0.33333333  0.16666667  0.33333333
  0.33333333  0.16666667  0.50000000
  0.33333333  0.16666667  0.66666667
  0.33333333  0.16666667  0.83333333
  0.33333333  0.33333333  0.00000000
  0.33333333  0.33333333  0.16666667
  0.33333333  0.33333333  0.33333333
  0.33333333  0.33333333  0.50000000
  0.33333333  0.33333333  0.66666667
  0.33333333  0.33333333  0.83333333
  0.33333333  0.50000000  0.00000000
  0.33333333  0.50000000  0.16666667
  0.33333333  0.50000000  0.33333333
  0.33333333  0.50000000  0.50000000
  0.33333333  0.50000000  0.66666667
  0.33333333  0.50000000  0.83333333
  0.33333333  0.66666667  0.00000000
  0.33333333  0.66666667  0.16666667
  0.33333333  0.66666667  0.33333333
  0.33333333  0.66666667  0.50000000
  0.33333333  0.66666667  0.66666667
  0.33333333  0.66666667  0.83333333
  0.33333333  0.83333333  0.00000000
  0.33333333  0.83333333  0.16666667
  0.33333333  0.83333333  0.33333333
  0.33333333  0.83333333  0.50000000
  0.33333333  0.83333333  0.66666667
  0.33333333  0.83333333  0.83333333
  0.50000000  0.00000000  0.00000000
  0.50000000  0.00000000  0.16666667
  0.50000000  0.00000000  0.33333333
  0.50000000  0.00000000  0.50000000
  0.50000000  0.00000000  0.66666667
  0.50000000  0.00000000  0.83333333
  0.50000000  0.16666667  0.00000000
  0.50000000  0.16666667  0.16666667
  0.50000000  0.16666667  0.33333333
  0.50000000  0.16666667  0.50000000
  0.50000000  0.16666667  0.66666667
  0.50000000  0.16666667  0.83333333
  0.50000000  0.33333333  0.00000000
  0.50000000  0.33333333  0.16666667
  0.50000000  0.33333333  0.33333333
  0.50000000  0.33333333  0.50000000
  0.50000000  0.33333333  0.66666667
  0.50000000  0.33333333  0.83333333
  0.50000000  0.50000000  0.00000000
  0.50000000  0.50000000  0.16666667
  0.50000000  0.50000000  0.33333333
  0.50000000  0.50000000  0.50000000
  0.50000000  0.50000000  0.66666667
  0.50000000  0.50000000  0.83333333
  0.50000000  0.66666667  0.00000000
  0.50000000  0.66666667  0.16666667
  0.50000000  0.66666667  0.33333333
  0.50000000  0.66666667  0.50000000
  0.50000000  0.66666667  0.66666667
  0.50000000  0.66666667  0.83333333
  0.50000000  0.83333333  0.00000000
  0.50000000  0.83333333  0.16666667
  0.50000000  0.83333333  0.33333333
  0.50000000  0.83333333  0.50000000
  0.50000000  0.83333333  0.66666667
  0.50000000  0.83333333  0.83333333
  0.66666667  0.00000000  0.00000000
  0.66666667  0.00000000  0.16666667
  0.66666667  0.00000000  0.33333333
  0.66666667  0.00000000  0.50000000
  0.66666667  0.00000000  0.66666667
  0.66666667  0.00000000  0.83333333
  0.66666667  0.16666667  0.00000000
  0.66666667  0.16666667  0.16666667
  0.66666667  0.16666667  0.33333333
  0.66666667  0.16666667  0.50000000
  0.66666667  0.16666667  0.66666667
  0.66666667  0.16666667  0.83333333
  0.66666667  0.33333333  0.00000000
  0.66666667  0.33333333  0.16666667
  0.66666667  0.33333333  0.33333333
  0.66666667  0.33333333  0.50000000
  0.66666667  0.33333333  0.66666667
  0.66666667  0.33333333  0.83333333
  0.66666667  0.50000000  0.00000000
  0.66666667  0.50000000  0.16666667
  0.66666667  0.50000000  0.33333333
  0.66666667  0.50000000  0.50000000
  0.66666667  0.50000000  0.66666667
  0.66666667  0.50000000  0.83333333
  0.66666667  0.66666667  0.00000000
  0.66666667  0.66666667  0.16666667
  0.66666667  0.66666667  0.33333333
  0.66666667  0.66666667  0.50000000
  0.66666667  0.66666667  0.66666667
  0.66666667  0.66666667  0.83333333
  0.66666667  0.83333333  0.00000000
  0.66666667  0.83333333  0.16666667
  0.66666667  0.83333333  0.33333333
  0.66666667  0.83333333  0.50000000
  0.66666667  0.83333333  0.66666667
  0.66666667  0.83333333  0.83333333
  0.83333333  0.00000000  0.00000000
  0.83333333  0.00000000  0.16666667
  0.83333333  0.00000000  0.33333333
  0.83333333  0.00000000  0.50000000
  0.83333333  0.00000000  0.66666667
  0.83333333  0.00000000  0.83333333
  0.83333333  0.16666667  0.00000000
  0.83333333  0.16666667  0.16666667
  0.83333333  0.16666667  0.33333333
  0.83333333  0.16666667  0.50000000
  0.83333333  0.16666667  0.66666667
  0.83333333  0.16666667  0.83333333
  0.83333333  0.33333333  0.00000000
  0.83333333  0.33333333  0.16666667
  0.83333333  0.33333333  0.33333333
  0.83333333  0.33333333  0.50000000
  0.83333333  0.33333333  0.66666667
  0.83333333  0.33333333  0.83333333
  0.83333333  0.50000000  0.00000000
  0.83333333  0.50000000  0.16666667
  0.83333333  0.50000000  0.33333333
  0.83333333  0.50000000  0.50000000
  0.83333333  0.50000000  0.66666667
  0.83333333  0.50000000  0.83333333
  0.83333333  0.66666667  0.00000000
  0.83333333  0.66666667  0.16666667
  0.83333333  0.66666667  0.33333333
  0.83333333  0.66666667  0.50000000
  0.83333333  0.66666667  0.66666667
  0.83333333  0.66666667  0.83333333
  0.83333333  0.83333333  0.00000000
  0.83333333  0.83333333  0.16666667
  0.83333333  0.83333333  0.33333333
  0.83333333  0.83333333  0.50000000
  0.83333333  0.83333333  0.66666667
  0.83333333  0.83333333  0.83333333
end kpoints
