 &control
    calculation='scf'
    restart_mode='from_scratch',
    prefix='Si'
    pseudo_dir = '../../files/pseudo'
    outdir='./tmp'
    verbosity='high'
 /
 &system
    ibrav = 2, 
    celldm(1) = 10.262, 
    nat = 2, 
    ntyp = 1,
    ecutwfc = 40.0, 
    input_dft = 'SCAN'
    nbnd = 5
 /
 &electrons
    conv_thr = 1.d-10
 /
ATOMIC_SPECIES
Si 28.086  Si.SCAN.UPF
ATOMIC_POSITIONS {alat}
 Si 0.00 0.00 0.00
 Si 0.25 0.25 0.25
K_POINTS {automatic}
 12 12 12 0 0 0
