 &control
    calculation='scf'
    restart_mode='from_scratch',
    prefix='Fe'
    pseudo_dir = '../../files/pseudo'
    outdir='./tmp'
    verbosity='high'
 /
 &system
    ibrav = 3, 
    celldm(1) = 5.406, 
    nat = 1, 
    ntyp = 1,
    ecutwfc = 60.0, 
    occupations = 'smearing', 
    smearing ='mv', 
    degauss = 0.01,
    nspin = 2,
    starting_magnetization(1) = 0.3,
    input_dft = 'SCAN'
 /
 &electrons
    conv_thr = 1.d-12
 /
ATOMIC_SPECIES
Fe  55.845  Fe.pbe_PseudoDojo.UPF
ATOMIC_POSITIONS {crystal}
Fe 0.000000  0.000000  0.000000
K_POINTS {automatic}
 13 13 13 0 0 0
