&projwfc
   outdir           = '/home/nicola/Scrivania/CODES/git/hubbard-koopmans-2022/Day3/2_Si_kcp/postproc/wannier/TMP'
   prefix           = 'kc_bands'
   deltae           = 0.01
   degauss          = 0.01
   filpdos          = 'si'
/
