&projwfc
   outdir           = '/home/degennar/CODES/hubbard-koopmans-2022/Day3/exercise2/postproc/TMP'
   prefix           = 'kc_bands'
   deltae           = 0.01
   degauss          = 0.01
   filpdos          = 'si'
/
