 &control
    calculation='nscf'
    restart_mode='from_scratch',
    prefix='FeO'
    pseudo_dir = '../files/pseudo'
    outdir='./tmp'
    verbosity='high'
 /
 &system
    ibrav = 0,
    celldm(1) = 8.00,
    nat = 4,
    ntyp = 3,
    ecutwfc = 35.0
    ecutrho = 280.0
    nspin = 2
    starting_magnetization(1) =  0.5,
    starting_magnetization(2) = -0.5,
    occupations = 'smearing',
    smearing = 'mv',
    degauss = 0.02
    nbnd = 40
 /
 &electrons
    conv_thr =  1.d-9
 /
ATOMIC_SPECIES
 Fe1  55.845  Fe.pbesol-spn-kjpaw_psl.0.2.1.UPF
 Fe2  55.845  Fe.pbesol-spn-kjpaw_psl.0.2.1.UPF
 O    15.999  O.pbesol-n-kjpaw_psl.0.1.UPF
ATOMIC_POSITIONS {crystal}
Fe1      0.00000000     0.00000000     0.00000000
Fe2      0.50000000     0.50000000     0.50000000
O        0.25000000     0.25000000     0.25000000
O        0.75000000     0.75000000     0.75000000
CELL_PARAMETERS {alat}
   0.582729109   0.582729109   1.045799900
   0.582729109   1.045799900   0.582729109
   1.045799900   0.582729109   0.582729109
K_POINTS {automatic}
 6 6 6 0 0 0
