&CONTROL
   calculation      = 'scf'
   verbosity        = 'high'
   prefix           = 'kc'
   outdir           = '../out'
   pseudo_dir       = '../../../files/pseudo'
/
&SYSTEM
   ecutwfc          = 50.0
   nspin            = 2
   tot_magnetization = 0
   starting_magnetization(1) = 0.0
   starting_magnetization(2) = 0.0
   ntyp             = 2
   nat              = 4
   ibrav            = 0
/
&ELECTRONS
   conv_thr         = 1.04e-07
/

ATOMIC_SPECIES
Zn  65.38 Zn.upf
O  15.999 O.upf

K_POINTS automatic
4 4 4  0 0 0

CELL_PARAMETERS angstrom
-1.62472500000000 -2.81410624830000 0.00000000000000
-1.62472500000000 2.81410624830000 0.00000000000000
0.00000000000000 0.00000000000000 -5.20574000000000

ATOMIC_POSITIONS crystal
Zn  0.3333000000 0.6667000000 0.5000000000
Zn  0.6667000000 0.3333000000 -0.0000000000
O  0.3333000000 0.6667000000 0.1172500000
O  0.6667000000 0.3333000000 0.6172500000

