&CONTROL
   calculation      = 'scf'
   verbosity        = 'high'
   outdir           = '/home/nicola/Scrivania/CODES/git/hubbard-koopmans-2022/Day3/2_Si_kcp/postproc/wannier/TMP/'
   prefix           = 'kc'
   pseudo_dir       = '/home/nicola/Scrivania/CODES/git/koopmans/pseudos/pseudo_dojo_standard_v0.4.1/lda/'
/
&SYSTEM
   ibrav            = 2
   celldm(1)        = 10.262200042863787
   tot_charge       = 0
   ecutwfc          = 20.0
   nspin            = 1
   ntyp             = 1
   nat              = 2
/
&ELECTRONS
   conv_thr         = 1.6e-08
/
&IONS
/
&CELL
/

ATOMIC_SPECIES
Si 28.085 Si.upf

K_POINTS automatic
2 2 2  0 0 0

ATOMIC_POSITIONS crystal
Si -0.0000000000 0.0000000000 -0.0000000000 
Si 0.2500000000 0.2500000000 0.2500000000 

