&CONTROL
   calculation      = 'scf'
   verbosity        = 'high'
   outdir           = './out'
   pseudo_dir       = '../../files/pseudo/'
   prefix           = 'si'
/
&SYSTEM
   ibrav            = 2
   celldm(1)        = 10.262200042863787
   ecutwfc          = 40.0
   nspin            = 1
   ntyp             = 1
   nat              = 2
   nbnd             = 5
   !
   input_dft        = "pbe0"
   nqx1             = 3
   nqx2             = 3
   nqx3             = 3
   exxdiv_treatment = "g-b"
   x_gamma_extrapolation = .true.
   ecutfock         = 40
/
&ELECTRONS
   adaptive_thr     = .true.
   conv_thr         = 1.6e-08
/

ATOMIC_SPECIES
Si  28.085 Si_ONCV_PBE-1.2.upf

K_POINTS automatic
12 12 12  0 0 0

ATOMIC_POSITIONS crystal
Si  -0.0000000000 0.0000000000 -0.0000000000
Si  0.2500000000 0.2500000000 0.2500000000
