&inputpp
  outdir     =  'out/'
  prefix     =  'si'
  seedname   =  'si2'
  write_amn  =  .true.
  write_mmn  =  .true.
  write_unk  =  .true.
/
