&CONTROL
   calculation      = 'bands'
   verbosity        = 'high'
   outdir           = '/home/nicola/Scrivania/CODES/git/hubbard-koopmans-2022/Day3/2_Si_kcp/postproc/wannier/TMP/'
   prefix           = 'kc_bands'
   pseudo_dir       = '/home/nicola/Scrivania/CODES/git/koopmans/pseudos/pseudo_dojo_standard_v0.4.1/lda/'
/
&SYSTEM
   ibrav            = 2
   celldm(1)        = 10.262200042863787
   nbnd             = 20
   tot_charge       = 0
   ecutwfc          = 20.0
   nspin            = 1
   ntyp             = 1
   nat              = 2
/
&ELECTRONS
   conv_thr         = 1.6e-08
/
&IONS
/
&CELL
/

ATOMIC_SPECIES
Si 28.085 Si.upf

K_POINTS crystal_b
43
0.50000000000000 0.50000000000000 0.50000000000000 0
0.44444444444444 0.44444444444444 0.44444444444444 0
0.38888888888889 0.38888888888889 0.38888888888889 0
0.33333333333333 0.33333333333333 0.33333333333333 0
0.27777777777778 0.27777777777778 0.27777777777778 0
0.22222222222222 0.22222222222222 0.22222222222222 0
0.16666666666667 0.16666666666667 0.16666666666667 0
0.11111111111111 0.11111111111111 0.11111111111111 0
0.05555555555556 0.05555555555556 0.05555555555556 0
0.00000000000000 0.00000000000000 0.00000000000000 0
0.04545454545455 0.00000000000000 0.04545454545455 0
0.09090909090909 0.00000000000000 0.09090909090909 0
0.13636363636364 0.00000000000000 0.13636363636364 0
0.18181818181818 0.00000000000000 0.18181818181818 0
0.22727272727273 0.00000000000000 0.22727272727273 0
0.27272727272727 0.00000000000000 0.27272727272727 0
0.31818181818182 0.00000000000000 0.31818181818182 0
0.36363636363636 0.00000000000000 0.36363636363636 0
0.40909090909091 0.00000000000000 0.40909090909091 0
0.45454545454545 0.00000000000000 0.45454545454545 0
0.50000000000000 0.00000000000000 0.50000000000000 0
0.48611111111111 0.04166666666667 0.52777777777778 0
0.47222222222222 0.08333333333333 0.55555555555556 0
0.45833333333333 0.12500000000000 0.58333333333333 0
0.44444444444444 0.16666666666667 0.61111111111111 0
0.43055555555556 0.20833333333333 0.63888888888889 0
0.41666666666667 0.25000000000000 0.66666666666667 0
0.40277777777778 0.29166666666667 0.69444444444444 0
0.38888888888889 0.33333333333333 0.72222222222222 0
0.37500000000000 0.37500000000000 0.75000000000000 0
0.34615384615385 0.34615384615385 0.69230769230769 0
0.31730769230769 0.31730769230769 0.63461538461538 0
0.28846153846154 0.28846153846154 0.57692307692308 0
0.25961538461538 0.25961538461538 0.51923076923077 0
0.23076923076923 0.23076923076923 0.46153846153846 0
0.20192307692308 0.20192307692308 0.40384615384615 0
0.17307692307692 0.17307692307692 0.34615384615385 0
0.14423076923077 0.14423076923077 0.28846153846154 0
0.11538461538462 0.11538461538462 0.23076923076923 0
0.08653846153846 0.08653846153846 0.17307692307692 0
0.05769230769231 0.05769230769231 0.11538461538462 0
0.02884615384615 0.02884615384615 0.05769230769231 0
0.00000000000000 0.00000000000000 0.00000000000000 0

ATOMIC_POSITIONS crystal
Si -0.0000000000 0.0000000000 -0.0000000000 
Si 0.2500000000 0.2500000000 0.2500000000 

