&CONTROL
   calculation      = 'bands'
   verbosity        = 'high'
   outdir           = './out'
   pseudo_dir       = '../../files/pseudo/'
   prefix           = 'si'
/
&SYSTEM
   ibrav            = 2
   celldm(1)        = 10.262200042863787
   ecutwfc          = 40.0
   nspin            = 1
   ntyp             = 1
   nat              = 2
   nbnd             = 12
/
&ELECTRONS
   adaptive_thr     = .true.
   conv_thr         = 1.6e-08
/

ATOMIC_SPECIES
Si  28.085 Si_ONCV_PBE-1.2.upf

K_POINTS {crystal_b}
5
  0.50000   0.50000   0.50000 20 ! L
  0.00000   0.00000   0.00000 20 ! G
  0.50000   0.00000   0.50000 20 ! X
  0.37500   0.37500   0.75000 20 ! K
  0.00000   0.00000   0.00000  0  ! G

ATOMIC_POSITIONS crystal
Si  -0.0000000000 0.0000000000 -0.0000000000
Si  0.2500000000 0.2500000000 0.2500000000
