&CONTROL
   calculation      = 'bands'
   verbosity        = 'high'
   prefix           = 'kc'
   outdir           = './out'
   pseudo_dir       = '../../../files/pseudo'
/
&SYSTEM
   ecutwfc          = 50.0
   nspin            = 1
   ntyp             = 2
   nat              = 4
   ibrav            = 0  
   nbnd             = 36
/
&ELECTRONS
   conv_thr         = 1.04e-07
/
&IONS
/
&CELL
/

ATOMIC_SPECIES
Zn  65.38 Zn.upf
O  15.999 O.upf

CELL_PARAMETERS angstrom
-1.62472500000000 -2.81410624830000 0.00000000000000
-1.62472500000000 2.81410624830000 0.00000000000000
0.00000000000000 0.00000000000000 -5.20574000000000

ATOMIC_POSITIONS crystal
Zn  0.3333000000 0.6667000000 0.5000000000
Zn  0.6667000000 0.3333000000 -0.0000000000
O  0.3333000000 0.6667000000 0.1172500000
O  0.6667000000 0.3333000000 0.6172500000

K_POINTS crystal_b
 7
 0.00000   0.00000   0.50000 10 ! A
 0.50000   0.00000   0.50000 10 ! L
 0.50000   0.00000   0.00000 10 ! M
 0.00000   0.00000   0.00000 10 ! G
 0.00000   0.00000   0.50000 10 ! A
 0.33333   0.33333   0.50000 10 ! H
 0.33333   0.33333   0.00000  1 ! K
