&bands
   outdir           = './out'
   prefix           = 'kc'
   filband          = 'dft_bands'
   lsym = .false.
/
