num_iter = 0
conv_tol = 1e-10
conv_window = 5
guiding_centres = .true.
gamma_only = .false.
bands_plot = .true.
write_u_matrices = .true.
write_xyz = .true.
write_hr = .true.

begin projections
  f=0.3333,0.6667,0.50000 :l=0
  f=0.3333,0.6667,0.50000 :l=1
  f=0.3333,0.6667,0.50000 :l=2
  f=0.6667,0.3333,0.00000 :l=0
  f=0.6667,0.3333,0.00000 :l=1
  f=0.6667,0.3333,0.00000 :l=2
  f=0.3333,0.6667,0.11725 :l=0
  f=0.3333,0.6667,0.11725 :l=1
  f=0.6667,0.3333,0.61725 :l=0
  f=0.6667,0.3333,0.61725 :l=1
end projections

num_wann = 26
num_bands = 26
exclude_bands = 27-52
mp_grid = 4 4 4

begin kpoints
  0.0 0.0 0.0 0.015625
  0.0 0.0 0.25 0.015625
  0.0 0.0 -0.5 0.015625
  0.0 0.0 -0.25 0.015625
  0.0 0.25 0.0 0.015625
  0.0 0.25 0.25 0.015625
  0.0 0.25 -0.5 0.015625
  0.0 0.25 -0.25 0.015625
  0.0 -0.5 0.0 0.015625
  0.0 -0.5 0.25 0.015625
  0.0 -0.5 -0.5 0.015625
  0.0 -0.5 -0.25 0.015625
  0.0 -0.25 0.0 0.015625
  0.0 -0.25 0.25 0.015625
  0.0 -0.25 -0.5 0.015625
  0.0 -0.25 -0.25 0.015625
  0.25 0.0 0.0 0.015625
  0.25 0.0 0.25 0.015625
  0.25 0.0 -0.5 0.015625
  0.25 0.0 -0.25 0.015625
  0.25 0.25 0.0 0.015625
  0.25 0.25 0.25 0.015625
  0.25 0.25 -0.5 0.015625
  0.25 0.25 -0.25 0.015625
  0.25 -0.5 0.0 0.015625
  0.25 -0.5 0.25 0.015625
  0.25 -0.5 -0.5 0.015625
  0.25 -0.5 -0.25 0.015625
  0.25 -0.25 0.0 0.015625
  0.25 -0.25 0.25 0.015625
  0.25 -0.25 -0.5 0.015625
  0.25 -0.25 -0.25 0.015625
  -0.5 0.0 0.0 0.015625
  -0.5 0.0 0.25 0.015625
  -0.5 0.0 -0.5 0.015625
  -0.5 0.0 -0.25 0.015625
  -0.5 0.25 0.0 0.015625
  -0.5 0.25 0.25 0.015625
  -0.5 0.25 -0.5 0.015625
  -0.5 0.25 -0.25 0.015625
  -0.5 -0.5 0.0 0.015625
  -0.5 -0.5 0.25 0.015625
  -0.5 -0.5 -0.5 0.015625
  -0.5 -0.5 -0.25 0.015625
  -0.5 -0.25 0.0 0.015625
  -0.5 -0.25 0.25 0.015625
  -0.5 -0.25 -0.5 0.015625
  -0.5 -0.25 -0.25 0.015625
  -0.25 0.0 0.0 0.015625
  -0.25 0.0 0.25 0.015625
  -0.25 0.0 -0.5 0.015625
  -0.25 0.0 -0.25 0.015625
  -0.25 0.25 0.0 0.015625
  -0.25 0.25 0.25 0.015625
  -0.25 0.25 -0.5 0.015625
  -0.25 0.25 -0.25 0.015625
  -0.25 -0.5 0.0 0.015625
  -0.25 -0.5 0.25 0.015625
  -0.25 -0.5 -0.5 0.015625
  -0.25 -0.5 -0.25 0.015625
  -0.25 -0.25 0.0 0.015625
  -0.25 -0.25 0.25 0.015625
  -0.25 -0.25 -0.5 0.015625
  -0.25 -0.25 -0.25 0.015625
end kpoints

begin kpoint_path
   A  0.00000   0.00000   0.50000 L  0.50000   0.00000   0.50000
   L  0.50000   0.00000   0.50000 M  0.50000   0.00000   0.00000
   M  0.50000   0.00000   0.00000 G  0.00000   0.00000   0.00000
   G  0.00000   0.00000   0.00000 A  0.00000   0.00000   0.50000
   A  0.00000   0.00000   0.50000 H  0.33333   0.33333   0.50000
   H  0.33333   0.33333   0.50000 K  0.33333   0.33333   0.00000
end kpoint_path

begin atoms_frac
  Zn 0.3333000 0.6667000 0.5000000
  Zn 0.6667000 0.3333000 0.0000000
  O 0.33330000 0.6667000 0.1172500
  O 0.66670000 0.3333000 0.6172500
end atoms_frac

begin unit_cell_cart
  ang
  -1.6247250000 -2.8141062483  0.0000000000
  -1.6247250000  2.8141062483  0.0000000000
   0.0000000000  0.0000000000 -5.2057400000
end unit_cell_cart
