&inputpp
   outdir           = '/home/degennar/CODES/hubbard-koopmans-2022/Day3/exercise2/postproc/TMP'
   prefix           = 'kc'
   seedname         = 'wann'
   wan_mode         = 'standalone'
/
