&inputpp
   outdir           = '/home/nicola/Scrivania/CODES/git/hubbard-koopmans-2022/Day3/2_Si_kcp/postproc/wannier/TMP'
   prefix           = 'kc'
   seedname         = 'wann'
   wan_mode         = 'standalone'
/
