&CONTROL
   prefix           = 'kc'
   outdir           = '../out'
   kcw_iverbosity   = 1
   kcw_at_ks        = .true.
   calculation      = 'screen'
   lrpa             = .false.
   mp1              = 1
   mp2              = 1
   mp3              = 1
   assume_isolated  = 'm-t'
   spin_component   = 1
/
&SCREEN
   tr2              = 1e-14
   nmix             = 4
   niter            = 33
   check_spread     = .true.
/
