 &control
    calculation='scf'
    prefix='Si'
    pseudo_dir = '../../../../files/pseudo'
    outdir='./out'
    tprnfor = .true.
    tstress = .true. 
 /
 &system
    ibrav = 2, 
    celldm(1) = 10.20, 
    nat = 2, 
    ntyp = 1,
    ecutwfc = 40, 
    nbnd = 5
 /
 &electrons
    conv_thr = 1.d-12
 /
ATOMIC_SPECIES
Si 28.086  Si.pbe_PseudoDojo.UPF

ATOMIC_POSITIONS {alat}
 Si 0.00 0.00 0.00
 Si 0.25 0.25 0.25

K_POINTS {automatic}
 12 12 12 0 0 0
