&bands
   outdir           = './out'
   prefix           = 'si'
   filband          = 'dft_bands'
/
