&inputhp
   prefix = 'CoO'
   outdir = './tmp'
   nq1 = 2, nq2 = 2, nq3 = 2
   conv_thr_chi = 1.d-6
/
