  &bands
    prefix = 'Si',
    outdir = './tmp'
    filband = 'Si_bands.dat'
  /
