 &control
    calculation = 'bands',
    verbosity = 'high',
    pseudo_dir = '../../files/pseudo'
    outdir='./tmp'
    restart_mode='from_scratch'
    verbosity = 'high',
    prefix='Si',
 /
 &system
    ibrav = 2, 
    celldm(1) = 10.346, 
    nat = 2, 
    ntyp = 1,
    ecutwfc = 30, 
    occupations = 'fixed',
    nbnd = 10,
 /
 &electrons
    mixing_beta = 0.3 
    diagonalization = 'cg'
    conv_thr =  1.0d-8,
 /
ATOMIC_SPECIES
 Si  1.  Si.pbe-rrkj.UPF
ATOMIC_POSITIONS crystal
 Si  0.0  0.0  0.0 
 Si  0.25  0.25  0.25 
K_POINTS crystal_b
 6
 0.5 0.5 0.5 30
 0.0 0.0 0.0 30
 0.5 0.5 0.0 0
 0.5 0.5 1.0 10
 0.375 0.375 0.75 30
 0.0 0.0 0.0 1
HUBBARD ortho-atomic
V Si-3p Si-3p 1 1 1.42
V Si-3p Si-3p 1 2 0.25
