 &control
    calculation = 'scf',
    verbosity = 'high',
    pseudo_dir = '../../files/pseudo'
    outdir='./tmp'
    restart_mode='from_scratch'
    verbosity = 'high',
    prefix='Si',
 /
 &system
    ibrav = 2, 
    celldm(1) = 10.346, 
    nat = 2, 
    ntyp = 1,
    ecutwfc = 30, 
    occupations = 'fixed',
    nbnd = 10,
 /
 &electrons
    mixing_beta = 0.3 
    conv_thr = 1.0d-8,
 /
ATOMIC_SPECIES
 Si  1.  Si.pbe-rrkj.UPF
ATOMIC_POSITIONS crystal
 Si  0.0  0.0  0.0 
 Si  0.25  0.25  0.25 
K_POINTS automatic
8 8 8 0 0 0
HUBBARD ortho-atomic
V Si-3p Si-3p 1 1 1.42
V Si-3p Si-3p 1 2 0.25
