&CONTROL
   prefix           = 'kc'
   outdir           = '../out'
   kcw_iverbosity   = 1
   kcw_at_ks        = .false.
   calculation      = 'wann2kcw'
   lrpa             = .false.
   homo_only        = .false.
   read_unitary_matrix = .true.
   l_vcut           = .true.
/
&WANNIER
   seedname         = 'wann'
   check_ks         = .true.
   num_wann_occ     = 26
   num_wann_emp     = 2
   have_empty       = .true.
   has_disentangle  = .true.
/
