&CONTROL
   calculation      = 'cp'
   verbosity        = 'low'
   restart_mode     = 'restart'
   iprint           = 1
   outdir           = '/home/nicola/Scrivania/CODES/git/hubbard-koopmans-2022/Day3/2_Si_kcp/calc_alpha/TMP-CP/orbital_32/'
   prefix           = 'kc'
   disk_io          = 'high'
   pseudo_dir       = '/home/nicola/Scrivania/CODES/git/koopmans/pseudos/pseudo_dojo_standard_v0.4.1/lda/'
   ndr              = 60
   ndw              = 63
   write_hr         = .false.
/
&SYSTEM
   ibrav            = 2
   celldm(1)        = 20.524400085727574
   tot_charge       = 0
   tot_magnetization = 0
   ecutwfc          = 20.0
   nspin            = 2
   fixed_band       = 32
   f_cutoff         = 1e-05
   do_orbdep        = .false.
   fixed_state      = .true.
   do_ee            = .true.
   nelec            = 64
   nelup            = 32
   neldw            = 32
   do_wf_cmplx      = .true.
   nr1b             = 20
   nr2b             = 20
   nr3b             = 20
   starting_magnetization(1) = 0.0
   ntyp             = 1
   nat              = 16
/
&ELECTRONS
   conv_thr         = 6.4000000000000006e-06
   ortho_para       = 1
   maxiter          = 300
   electron_dynamics = 'cg'
   passop           = 2.0
   do_outerloop     = .true.
/
&IONS
   ion_dynamics     = 'none'
   ion_nstepe       = 5
   ion_radius(1)    = 1.0
   ion_radius(2)    = 1.0
   ion_radius(3)    = 1.0
   ion_radius(4)    = 1.0
/
&CELL
/
&EE
   which_compensation = 'none'
/
&NKSIC
   do_innerloop     = .false.
   innerloop_cg_nreset = 20
   innerloop_cg_nsd = 2
   innerloop_init_n = 3
   hartree_only_sic = .false.
   esic_conv_thr    = 6.4000000000000006e-06
   do_innerloop_cg  = .true.
   innerloop_nmax   = 100
/

ATOMIC_SPECIES
Si  28.085 Si.upf

ATOMIC_POSITIONS crystal
Si  -0.0000000000 0.0000000000 -0.0000000000
Si  0.1250000000 0.1250000000 0.1250000000
Si  -0.0000000000 0.0000000000 0.5000000000
Si  0.1250000000 0.1250000000 0.6250000000
Si  -0.0000000000 0.5000000000 -0.0000000000
Si  0.1250000000 0.6250000000 0.1250000000
Si  0.0000000000 0.5000000000 0.5000000000
Si  0.1250000000 0.6250000000 0.6250000000
Si  0.5000000000 0.0000000000 -0.0000000000
Si  0.6250000000 0.1250000000 0.1250000000
Si  0.5000000000 0.0000000000 0.5000000000
Si  0.6250000000 0.1250000000 0.6250000000
Si  0.5000000000 0.5000000000 -0.0000000000
Si  0.6250000000 0.6250000000 0.1250000000
Si  0.5000000000 0.5000000000 0.5000000000
Si  0.6250000000 0.6250000000 0.6250000000

