num_iter        = 10000
conv_tol        = 1e-10
conv_window     = 5
guiding_centres = .true.

gamma_only      = .false.

write_hr        = .true.
write_u_matrices = .true.
write_xyz       = .true.

begin projections
  f=0.25,0.25,0.25:sp3
end projections

exclude_bands   = 5-20
num_wann        = 4
num_bands       = 4
mp_grid         = 2 2 2

begin kpoints
  0.00000000  0.00000000  0.00000000  1.250000e-01
  0.00000000  0.00000000  0.50000000  1.250000e-01
  0.00000000  0.50000000  0.00000000  1.250000e-01
  0.00000000  0.50000000  0.50000000  1.250000e-01
  0.50000000  0.00000000  0.00000000  1.250000e-01
  0.50000000  0.00000000  0.50000000  1.250000e-01
  0.50000000  0.50000000  0.00000000  1.250000e-01
  0.50000000  0.50000000  0.50000000  1.250000e-01
end kpoints

bands_plot = .true.
begin kpoint_path
   L  0.50000   0.50000   0.50000 G  0.00000   0.00000   0.00000
   G  0.00000   0.00000   0.00000 X  0.50000   0.00000   0.50000
   X  0.50000   0.00000   0.50000 K  0.37500   0.37500   0.75000
   K  0.37500   0.37500   0.75000 G  0.00000   0.00000   0.00000
end kpoint_path

begin atoms_frac
  Si 0.0 0.0 0.0
  Si 0.25 0.25 0.25
end atoms_frac

begin unit_cell_cart
  ang
  -2.7152611851241253 0.0 2.7152611851241253
  0.0 2.7152611851241253 2.7152611851241253
  -2.7152611851241253 2.7152611851241253 0.0
end unit_cell_cart
