  &bands
    prefix = 'MnO',
    outdir='./tmp'
    filband = 'MnO_bands.dat'
  /
