&bands
    prefix = 'si'
    outdir = './out'
    filband = 'si_bands_pbe'
    lsym = .false.
/
