&CONTROL
   calculation      = 'bands'
   outdir           = './out'
   pseudo_dir       = '../../files/pseudo/'
   prefix           = 'si'
   verbosity        = 'high'
/
&SYSTEM
   ibrav            = 2
   celldm(1)        = 10.262200042863787
   ecutwfc          = 40.0
   ntyp             = 1
   nat              = 2
   nbnd             = 12
/
&ELECTRONS
   conv_thr         = 1.d-8
/

ATOMIC_SPECIES
Si 28.086  Si.pbe_PseudoDojo.UPF

K_POINTS {crystal_b}
5
  0.50000   0.50000   0.50000 20 ! L
  0.00000   0.00000   0.00000 20 ! G
  0.50000   0.00000   0.50000 20 ! X
  0.37500   0.37500   0.75000 20 ! K
  0.00000   0.00000   0.00000  0  ! G

ATOMIC_POSITIONS alat
Si  0.0000000000 0.0000000000 0.0000000000
Si  0.2500000000 0.2500000000 0.2500000000
