&CONTROL
   prefix           = 'kc'
   outdir           = '../out'
   kcw_iverbosity   = 1
   kcw_at_ks        = .false.
   calculation      = 'ham'
   lrpa             = .false.
   mp1              = 4
   mp2              = 4
   mp3              = 4
   homo_only        = .false.
   read_unitary_matrix = .true.
   l_vcut           = .true.
   spin_component   = 1
/
&WANNIER
   seedname         = 'wann'
   check_ks         = .true.
   num_wann_occ     = 26
   num_wann_emp     = 2
   have_empty       = .true.
   has_disentangle  = .true.
/
&HAM
   do_bands         = .true.
   use_ws_distance  = .true.
   write_hr         = .true.
   l_alpha_corr     = .false.
/
K_POINTS crystal_b
53
0.00000000000000 0.00000000000000 0.50000000000000 0
0.05000000000000 0.00000000000000 0.50000000000000 0
0.10000000000000 0.00000000000000 0.50000000000000 0
0.15000000000000 0.00000000000000 0.50000000000000 0
0.20000000000000 0.00000000000000 0.50000000000000 0
0.25000000000000 0.00000000000000 0.50000000000000 0
0.30000000000000 0.00000000000000 0.50000000000000 0
0.35000000000000 0.00000000000000 0.50000000000000 0
0.40000000000000 0.00000000000000 0.50000000000000 0
0.45000000000000 0.00000000000000 0.50000000000000 0
0.50000000000000 0.00000000000000 0.50000000000000 0
0.50000000000000 0.00000000000000 0.40000000000000 0
0.50000000000000 0.00000000000000 0.30000000000000 0
0.50000000000000 0.00000000000000 0.20000000000000 0
0.50000000000000 0.00000000000000 0.10000000000000 0
0.50000000000000 0.00000000000000 0.00000000000000 0
0.45454545454545 0.00000000000000 0.00000000000000 0
0.40909090909091 0.00000000000000 0.00000000000000 0
0.36363636363636 0.00000000000000 0.00000000000000 0
0.31818181818182 0.00000000000000 0.00000000000000 0
0.27272727272727 0.00000000000000 0.00000000000000 0
0.22727272727273 0.00000000000000 0.00000000000000 0
0.18181818181818 0.00000000000000 0.00000000000000 0
0.13636363636364 0.00000000000000 0.00000000000000 0
0.09090909090909 0.00000000000000 0.00000000000000 0
0.04545454545455 0.00000000000000 0.00000000000000 0
0.00000000000000 0.00000000000000 0.00000000000000 0
0.00000000000000 0.00000000000000 0.08333333333333 0
0.00000000000000 0.00000000000000 0.16666666666667 0
0.00000000000000 0.00000000000000 0.25000000000000 0
0.00000000000000 0.00000000000000 0.33333333333333 0
0.00000000000000 0.00000000000000 0.41666666666667 0
0.00000000000000 0.00000000000000 0.50000000000000 0
0.02564102564103 0.02564102564103 0.50000000000000 0
0.05128205128205 0.05128205128205 0.50000000000000 0
0.07692307692308 0.07692307692308 0.50000000000000 0
0.10256410256410 0.10256410256410 0.50000000000000 0
0.12820512820513 0.12820512820513 0.50000000000000 0
0.15384615384615 0.15384615384615 0.50000000000000 0
0.17948717948718 0.17948717948718 0.50000000000000 0
0.20512820512821 0.20512820512821 0.50000000000000 0
0.23076923076923 0.23076923076923 0.50000000000000 0
0.25641025641026 0.25641025641026 0.50000000000000 0
0.28205128205128 0.28205128205128 0.50000000000000 0
0.30769230769231 0.30769230769231 0.50000000000000 0
0.33333333333333 0.33333333333333 0.50000000000000 0
0.33333333333333 0.33333333333333 0.42857142857143 0
0.33333333333333 0.33333333333333 0.35714285714286 0
0.33333333333333 0.33333333333333 0.28571428571429 0
0.33333333333333 0.33333333333333 0.21428571428571 0
0.33333333333333 0.33333333333333 0.14285714285714 0
0.33333333333333 0.33333333333333 0.07142857142857 0
0.33333333333333 0.33333333333333 0.00000000000000 0

