&projwfc
 outdir = '../out'
 prefix = 'kc_kcw'
 DeltaE = 0.005   !! eV
 ngauss = 0
 degauss = 0.02
 filpdos = 'ZnO'
/

