  &bands
    prefix = 'CrO',
    filband = 'CrO_bands.dat'
    outdir='./tmp'
  /
