&DOS
 outdir="../out"
 prefix="kc_kcw"
 deltaE=0.001
 degauss=0.001
/
